(set-logic QF_UF)
(declare-sort S 0)
(declare-fun f (S) S)
(declare-fun og () S)
(declare-fun og0 () S)
(declare-fun og1 () S)
(declare-fun ig () S)
(declare-fun oh0 () S)
(declare-fun oh1 () S)
(declare-fun ih () S)

(assert (= og ig))
(assert (= og0 (f og)))
(assert (= og1 (f og0)))
(assert (= oh0 (f ih)))
(assert (= oh1 (f oh0)))
(assert (= ig ih))
(assert (not (= oh1 og1)))
(check-sat)
